20 95 
1 5 1
1 10 1
1 14 1
1 15 1
1 17 1
1 20 1
2 5 1
2 6 1
2 7 1
2 8 1
2 9 1
2 11 1
2 13 1
2 17 1
2 18 1
3 6 1
3 8 1
3 12 1
3 13 1
3 15 1
3 18 1
3 19 1
3 20 1
4 5 1
4 6 1
4 7 1
4 9 1
4 10 1
4 11 1
4 12 1
4 16 1
4 17 1
4 20 1
5 7 1
5 8 1
5 10 1
5 11 1
5 14 1
5 20 1
6 7 1
6 8 1
6 15 1
6 16 1
6 19 1
7 8 1
7 9 1
7 10 1
7 12 1
7 13 1
7 15 1
7 16 1
7 17 1
7 20 1
8 9 1
8 10 1
8 11 1
8 12 1
8 14 1
8 19 1
8 20 1
9 12 1
9 13 1
9 16 1
9 20 1
10 13 1
10 16 1
10 19 1
10 20 1
11 12 1
11 13 1
11 15 1
11 19 1
11 20 1
12 14 1
12 15 1
12 17 1
12 18 1
12 19 1
12 20 1
13 15 1
13 16 1
13 18 1
13 19 1
14 17 1
14 18 1
14 20 1
15 17 1
15 18 1
15 19 1
15 20 1
16 18 1
16 20 1
17 19 1
18 19 1
18 20 1
